c Reduced graph for DSJR500.1_2 generated by Cyril Grelier
p edge 382 2729
e 1 7
e 1 11
e 1 27
e 1 31
e 1 34
e 1 75
e 1 86
e 1 113
e 1 115
e 1 120
e 1 137
e 1 154
e 1 155
e 1 167
e 1 202
e 1 215
e 1 220
e 1 285
e 1 288
e 1 306
e 1 336
e 1 342
e 1 345
e 2 9
e 2 33
e 2 56
e 2 111
e 2 132
e 2 147
e 2 190
e 2 196
e 2 203
e 2 214
e 2 247
e 2 256
e 2 287
e 2 291
e 2 321
e 2 322
e 2 332
e 2 334
e 2 340
e 3 8
e 3 44
e 3 63
e 3 70
e 3 74
e 3 78
e 3 112
e 3 130
e 3 133
e 3 148
e 3 212
e 3 228
e 3 235
e 3 236
e 3 254
e 3 289
e 3 295
e 3 302
e 3 347
e 4 26
e 4 37
e 4 49
e 4 79
e 4 95
e 4 131
e 4 136
e 4 171
e 4 201
e 4 205
e 4 206
e 4 227
e 4 246
e 4 294
e 4 301
e 4 359
e 4 372
e 4 377
e 5 28
e 5 80
e 5 108
e 5 110
e 5 204
e 5 231
e 5 255
e 5 284
e 5 286
e 5 317
e 5 319
e 5 320
e 5 326
e 5 333
e 5 337
e 5 351
e 5 361
e 5 370
e 6 26
e 6 33
e 6 79
e 6 81
e 6 131
e 6 184
e 6 201
e 6 205
e 6 240
e 6 257
e 6 258
e 6 290
e 6 301
e 6 321
e 6 332
e 6 339
e 6 371
e 6 372
e 7 11
e 7 27
e 7 31
e 7 34
e 7 75
e 7 86
e 7 97
e 7 120
e 7 188
e 7 215
e 7 220
e 7 288
e 7 306
e 7 336
e 7 342
e 7 350
e 8 38
e 8 44
e 8 63
e 8 78
e 8 112
e 8 117
e 8 122
e 8 133
e 8 148
e 8 150
e 8 174
e 8 212
e 8 236
e 8 272
e 8 299
e 8 347
e 9 33
e 9 56
e 9 111
e 9 147
e 9 190
e 9 203
e 9 214
e 9 247
e 9 256
e 9 291
e 9 321
e 9 322
e 9 332
e 9 334
e 9 340
e 9 371
e 10 13
e 10 32
e 10 40
e 10 60
e 10 61
e 10 84
e 10 238
e 10 275
e 10 292
e 10 308
e 10 318
e 10 319
e 10 326
e 10 337
e 10 355
e 10 363
e 11 27
e 11 34
e 11 75
e 11 86
e 11 97
e 11 120
e 11 188
e 11 215
e 11 220
e 11 288
e 11 306
e 11 336
e 11 342
e 11 350
e 12 91
e 12 93
e 12 116
e 12 149
e 12 172
e 12 176
e 12 179
e 12 183
e 12 224
e 12 225
e 12 243
e 12 266
e 12 269
e 12 304
e 12 367
e 13 32
e 13 40
e 13 60
e 13 238
e 13 292
e 13 308
e 13 318
e 13 319
e 13 326
e 13 337
e 13 355
e 13 361
e 13 363
e 14 43
e 14 55
e 14 135
e 14 153
e 14 165
e 14 169
e 14 186
e 14 210
e 14 213
e 14 239
e 14 303
e 14 324
e 14 357
e 14 362
e 15 21
e 15 36
e 15 83
e 15 121
e 15 152
e 15 163
e 15 260
e 15 297
e 15 305
e 15 315
e 15 325
e 15 373
e 16 17
e 16 132
e 16 190
e 16 196
e 16 214
e 16 247
e 16 287
e 16 291
e 16 322
e 16 334
e 17 72
e 17 73
e 17 132
e 17 141
e 17 156
e 17 267
e 17 287
e 17 368
e 17 382
e 18 65
e 18 88
e 18 96
e 18 102
e 18 137
e 18 138
e 18 168
e 18 202
e 18 345
e 19 38
e 19 45
e 19 55
e 19 117
e 19 151
e 19 210
e 19 307
e 19 365
e 20 66
e 20 100
e 20 159
e 20 197
e 20 240
e 20 329
e 20 359
e 21 83
e 21 121
e 21 163
e 21 349
e 21 373
e 22 65
e 22 146
e 22 180
e 22 265
e 22 381
e 23 69
e 23 107
e 23 199
e 23 283
e 24 53
e 26 37
e 26 79
e 26 81
e 26 95
e 26 131
e 26 159
e 26 184
e 26 201
e 26 205
e 26 206
e 26 227
e 26 240
e 26 246
e 26 257
e 26 258
e 26 294
e 26 301
e 26 339
e 26 359
e 26 372
e 27 31
e 27 34
e 27 75
e 27 86
e 27 113
e 27 115
e 27 137
e 27 154
e 27 155
e 27 167
e 27 202
e 27 215
e 27 220
e 27 285
e 27 288
e 27 306
e 27 336
e 27 342
e 27 345
e 28 57
e 28 80
e 28 108
e 28 110
e 28 118
e 28 204
e 28 237
e 28 255
e 28 284
e 28 286
e 28 293
e 28 317
e 28 320
e 28 331
e 28 333
e 28 351
e 28 361
e 28 370
e 28 376
e 29 30
e 29 57
e 29 77
e 29 108
e 29 118
e 29 166
e 29 181
e 29 182
e 29 192
e 29 211
e 29 221
e 29 229
e 29 317
e 29 319
e 29 323
e 29 331
e 29 341
e 29 370
e 29 375
e 29 379
e 30 57
e 30 77
e 30 94
e 30 157
e 30 166
e 30 181
e 30 182
e 30 211
e 30 218
e 30 221
e 30 229
e 30 234
e 30 274
e 30 323
e 30 341
e 30 358
e 30 375
e 30 379
e 31 75
e 31 90
e 31 113
e 31 115
e 31 154
e 31 155
e 31 167
e 31 185
e 31 202
e 31 242
e 31 285
e 31 288
e 31 335
e 31 336
e 31 344
e 31 349
e 32 35
e 32 60
e 32 61
e 32 77
e 32 134
e 32 181
e 32 182
e 32 211
e 32 238
e 32 275
e 32 292
e 32 318
e 32 319
e 32 337
e 32 341
e 32 358
e 32 374
e 33 56
e 33 81
e 33 111
e 33 147
e 33 184
e 33 190
e 33 214
e 33 240
e 33 256
e 33 257
e 33 321
e 33 329
e 33 332
e 33 334
e 33 339
e 33 371
e 34 75
e 34 86
e 34 120
e 34 137
e 34 188
e 34 202
e 34 215
e 34 220
e 34 285
e 34 288
e 34 306
e 34 336
e 34 342
e 34 350
e 35 60
e 35 61
e 35 82
e 35 84
e 35 85
e 35 134
e 35 212
e 35 238
e 35 263
e 35 275
e 35 292
e 35 312
e 35 318
e 35 358
e 35 374
e 36 56
e 36 83
e 36 111
e 36 121
e 36 152
e 36 203
e 36 222
e 36 256
e 36 259
e 36 260
e 36 297
e 36 305
e 36 321
e 36 325
e 36 373
e 37 79
e 37 131
e 37 136
e 37 171
e 37 201
e 37 205
e 37 206
e 37 246
e 37 290
e 37 294
e 37 301
e 37 372
e 37 377
e 38 44
e 38 45
e 38 52
e 38 63
e 38 70
e 38 117
e 38 150
e 38 151
e 38 307
e 38 343
e 38 347
e 38 365
e 39 83
e 39 89
e 39 90
e 39 121
e 39 152
e 39 185
e 39 219
e 39 242
e 39 259
e 39 296
e 39 325
e 39 349
e 39 373
e 39 380
e 40 60
e 40 238
e 40 292
e 40 308
e 40 318
e 40 326
e 40 337
e 40 355
e 40 361
e 40 363
e 41 87
e 41 127
e 41 170
e 41 187
e 41 209
e 41 217
e 41 245
e 41 262
e 41 313
e 41 315
e 41 328
e 41 378
e 42 59
e 42 64
e 42 99
e 42 104
e 42 143
e 42 178
e 42 194
e 42 207
e 42 208
e 42 230
e 42 298
e 42 354
e 43 55
e 43 135
e 43 153
e 43 186
e 43 213
e 43 303
e 43 324
e 43 357
e 43 362
e 44 63
e 44 70
e 44 133
e 44 148
e 44 302
e 44 347
e 45 52
e 45 117
e 45 151
e 45 210
e 45 307
e 45 347
e 45 365
e 46 126
e 46 142
e 46 198
e 46 233
e 46 249
e 46 252
e 46 268
e 46 282
e 47 158
e 47 164
e 47 195
e 47 250
e 47 298
e 47 310
e 47 338
e 48 103
e 48 125
e 48 161
e 48 230
e 48 244
e 48 248
e 48 311
e 49 50
e 49 95
e 49 227
e 49 246
e 49 294
e 49 300
e 50 68
e 50 95
e 50 159
e 50 227
e 50 294
e 50 300
e 51 124
e 51 139
e 51 162
e 51 270
e 51 381
e 52 70
e 52 347
e 54 55
e 54 92
e 54 109
e 54 135
e 54 150
e 54 151
e 54 153
e 54 165
e 54 169
e 54 191
e 54 210
e 54 213
e 54 239
e 54 264
e 54 272
e 54 276
e 54 278
e 54 303
e 54 324
e 54 343
e 54 357
e 54 362
e 54 364
e 54 366
e 55 109
e 55 117
e 55 135
e 55 150
e 55 151
e 55 153
e 55 165
e 55 169
e 55 186
e 55 210
e 55 213
e 55 272
e 55 303
e 55 307
e 55 324
e 55 343
e 55 357
e 55 362
e 55 365
e 56 81
e 56 111
e 56 147
e 56 203
e 56 222
e 56 256
e 56 257
e 56 260
e 56 291
e 56 305
e 56 321
e 56 322
e 56 325
e 56 332
e 56 334
e 56 339
e 56 340
e 56 371
e 57 77
e 57 108
e 57 118
e 57 166
e 57 192
e 57 211
e 57 221
e 57 223
e 57 284
e 57 317
e 57 319
e 57 320
e 57 323
e 57 331
e 57 341
e 57 370
e 57 379
e 58 59
e 58 62
e 58 74
e 58 76
e 58 130
e 58 195
e 58 207
e 58 208
e 58 235
e 58 241
e 58 250
e 58 253
e 58 254
e 58 273
e 58 310
e 58 338
e 58 356
e 58 360
e 58 369
e 59 62
e 59 74
e 59 76
e 59 143
e 59 158
e 59 194
e 59 195
e 59 207
e 59 208
e 59 241
e 59 253
e 59 254
e 59 273
e 59 298
e 59 310
e 59 338
e 59 369
e 60 61
e 60 82
e 60 84
e 60 85
e 60 238
e 60 275
e 60 292
e 60 308
e 60 318
e 60 337
e 60 355
e 60 360
e 60 363
e 61 82
e 61 84
e 61 85
e 61 134
e 61 212
e 61 238
e 61 275
e 61 292
e 61 312
e 61 318
e 61 360
e 61 363
e 61 374
e 62 74
e 62 76
e 62 158
e 62 195
e 62 207
e 62 208
e 62 241
e 62 250
e 62 253
e 62 273
e 62 298
e 62 310
e 62 338
e 62 356
e 62 369
e 63 70
e 63 117
e 63 122
e 63 133
e 63 148
e 63 150
e 63 151
e 63 174
e 63 272
e 63 343
e 63 347
e 64 99
e 64 178
e 64 189
e 64 194
e 64 226
e 64 230
e 64 244
e 64 248
e 64 311
e 64 314
e 64 354
e 65 88
e 65 96
e 65 114
e 65 168
e 65 327
e 65 335
e 65 344
e 65 348
e 65 353
e 66 71
e 66 100
e 66 190
e 66 197
e 66 271
e 66 283
e 66 329
e 67 92
e 67 109
e 67 140
e 67 191
e 67 239
e 67 264
e 67 278
e 67 364
e 68 95
e 68 100
e 68 159
e 68 227
e 68 294
e 68 300
e 68 359
e 69 71
e 69 107
e 69 197
e 69 199
e 69 271
e 69 283
e 70 133
e 70 347
e 71 197
e 71 199
e 71 271
e 72 73
e 72 141
e 72 267
e 72 368
e 73 141
e 73 144
e 73 368
e 74 76
e 74 78
e 74 112
e 74 130
e 74 133
e 74 143
e 74 148
e 74 207
e 74 208
e 74 228
e 74 235
e 74 236
e 74 253
e 74 254
e 74 273
e 74 289
e 74 295
e 74 302
e 74 356
e 74 369
e 75 86
e 75 113
e 75 115
e 75 120
e 75 137
e 75 154
e 75 167
e 75 188
e 75 202
e 75 215
e 75 220
e 75 285
e 75 288
e 75 306
e 75 336
e 75 342
e 75 345
e 75 350
e 76 112
e 76 130
e 76 207
e 76 208
e 76 235
e 76 236
e 76 241
e 76 253
e 76 254
e 76 273
e 76 289
e 76 295
e 76 302
e 76 338
e 76 356
e 76 360
e 76 369
e 77 134
e 77 166
e 77 181
e 77 182
e 77 211
e 77 218
e 77 221
e 77 274
e 77 318
e 77 319
e 77 323
e 77 341
e 77 358
e 77 370
e 77 374
e 77 375
e 77 379
e 78 82
e 78 84
e 78 85
e 78 112
e 78 130
e 78 133
e 78 148
e 78 212
e 78 235
e 78 236
e 78 253
e 78 254
e 78 289
e 78 302
e 78 356
e 78 360
e 78 369
e 79 81
e 79 131
e 79 184
e 79 201
e 79 205
e 79 206
e 79 240
e 79 257
e 79 258
e 79 290
e 79 301
e 79 332
e 79 339
e 79 359
e 79 371
e 79 372
e 80 108
e 80 110
e 80 204
e 80 231
e 80 255
e 80 284
e 80 286
e 80 317
e 80 319
e 80 320
e 80 326
e 80 331
e 80 333
e 80 337
e 80 351
e 80 361
e 80 370
e 81 131
e 81 184
e 81 201
e 81 205
e 81 240
e 81 257
e 81 258
e 81 290
e 81 301
e 81 321
e 81 332
e 81 339
e 81 371
e 81 372
e 82 84
e 82 85
e 82 112
e 82 130
e 82 212
e 82 235
e 82 238
e 82 241
e 82 275
e 82 289
e 82 292
e 82 356
e 82 360
e 82 363
e 82 369
e 83 90
e 83 121
e 83 152
e 83 163
e 83 219
e 83 222
e 83 242
e 83 259
e 83 296
e 83 305
e 83 325
e 83 349
e 83 373
e 83 380
e 84 85
e 84 130
e 84 235
e 84 238
e 84 241
e 84 275
e 84 292
e 84 355
e 84 356
e 84 360
e 84 363
e 84 369
e 85 112
e 85 130
e 85 212
e 85 235
e 85 236
e 85 253
e 85 275
e 85 289
e 85 356
e 85 360
e 85 369
e 86 97
e 86 120
e 86 188
e 86 215
e 86 220
e 86 288
e 86 306
e 86 336
e 86 342
e 86 350
e 87 93
e 87 116
e 87 127
e 87 149
e 87 187
e 87 217
e 87 245
e 87 261
e 87 262
e 87 304
e 87 309
e 87 313
e 87 346
e 87 378
e 88 96
e 88 114
e 88 115
e 88 138
e 88 154
e 88 155
e 88 168
e 88 202
e 88 285
e 88 335
e 88 344
e 88 345
e 88 348
e 89 136
e 89 171
e 89 175
e 89 185
e 89 205
e 89 219
e 89 242
e 89 259
e 89 280
e 89 290
e 89 296
e 89 372
e 89 377
e 89 380
e 90 113
e 90 167
e 90 185
e 90 219
e 90 242
e 90 259
e 90 296
e 90 342
e 90 349
e 90 373
e 90 380
e 91 93
e 91 116
e 91 129
e 91 149
e 91 172
e 91 176
e 91 183
e 91 224
e 91 225
e 91 243
e 91 304
e 91 367
e 92 109
e 92 140
e 92 191
e 92 193
e 92 239
e 92 264
e 92 276
e 92 278
e 92 364
e 92 366
e 93 116
e 93 149
e 93 172
e 93 183
e 93 225
e 93 261
e 93 304
e 93 367
e 94 140
e 94 157
e 94 166
e 94 181
e 94 218
e 94 229
e 94 234
e 94 274
e 94 375
e 94 379
e 95 206
e 95 227
e 95 246
e 95 294
e 95 300
e 95 359
e 96 102
e 96 114
e 96 138
e 96 168
e 96 202
e 96 285
e 96 344
e 96 345
e 97 106
e 97 188
e 97 215
e 97 220
e 97 288
e 97 336
e 97 342
e 97 350
e 98 118
e 98 128
e 98 145
e 98 192
e 98 223
e 98 251
e 98 284
e 98 293
e 98 317
e 98 320
e 98 331
e 99 104
e 99 158
e 99 178
e 99 194
e 99 226
e 99 230
e 99 298
e 99 354
e 100 159
e 100 197
e 100 283
e 100 300
e 100 329
e 100 359
e 101 102
e 101 119
e 101 138
e 101 177
e 101 277
e 101 281
e 101 286
e 101 330
e 102 137
e 102 138
e 102 281
e 102 330
e 102 345
e 103 125
e 103 161
e 103 232
e 103 244
e 103 248
e 103 311
e 104 158
e 104 178
e 104 194
e 104 226
e 104 298
e 105 160
e 105 161
e 105 232
e 105 269
e 105 316
e 106 164
e 106 220
e 106 250
e 106 350
e 107 199
e 107 283
e 108 110
e 108 118
e 108 204
e 108 237
e 108 255
e 108 284
e 108 286
e 108 317
e 108 319
e 108 320
e 108 323
e 108 326
e 108 331
e 108 333
e 108 361
e 108 370
e 108 376
e 109 135
e 109 153
e 109 165
e 109 169
e 109 186
e 109 191
e 109 213
e 109 239
e 109 264
e 109 276
e 109 278
e 109 303
e 109 324
e 109 357
e 109 362
e 109 364
e 109 366
e 110 119
e 110 177
e 110 204
e 110 237
e 110 255
e 110 277
e 110 284
e 110 286
e 110 293
e 110 317
e 110 320
e 110 331
e 110 333
e 110 351
e 110 361
e 110 370
e 110 376
e 111 132
e 111 147
e 111 203
e 111 214
e 111 216
e 111 247
e 111 256
e 111 287
e 111 291
e 111 321
e 111 322
e 111 332
e 111 334
e 111 340
e 111 371
e 112 130
e 112 133
e 112 148
e 112 212
e 112 235
e 112 236
e 112 253
e 112 254
e 112 289
e 112 302
e 112 356
e 112 369
e 113 114
e 113 115
e 113 154
e 113 155
e 113 167
e 113 168
e 113 185
e 113 202
e 113 219
e 113 242
e 113 285
e 113 335
e 113 344
e 114 115
e 114 154
e 114 155
e 114 167
e 114 168
e 114 202
e 114 285
e 114 327
e 114 335
e 114 344
e 114 345
e 114 348
e 114 353
e 115 154
e 115 155
e 115 167
e 115 168
e 115 202
e 115 285
e 115 288
e 115 335
e 115 336
e 115 344
e 116 149
e 116 172
e 116 183
e 116 217
e 116 245
e 116 261
e 116 262
e 116 304
e 116 309
e 116 346
e 116 367
e 116 378
e 117 150
e 117 151
e 117 165
e 117 174
e 117 210
e 117 272
e 117 307
e 117 343
e 117 347
e 117 365
e 118 145
e 118 192
e 118 221
e 118 223
e 118 255
e 118 284
e 118 317
e 118 320
e 118 323
e 118 331
e 118 370
e 119 177
e 119 204
e 119 237
e 119 251
e 119 255
e 119 277
e 119 281
e 119 284
e 119 286
e 119 293
e 119 330
e 119 333
e 119 376
e 120 137
e 120 188
e 120 215
e 120 231
e 120 288
e 120 306
e 120 336
e 120 350
e 121 152
e 121 163
e 121 260
e 121 297
e 121 305
e 121 325
e 121 349
e 121 373
e 122 150
e 122 174
e 122 191
e 122 193
e 122 212
e 122 263
e 122 272
e 122 276
e 122 299
e 122 312
e 122 366
e 123 132
e 123 156
e 123 170
e 123 203
e 123 209
e 123 216
e 123 260
e 123 287
e 123 297
e 123 315
e 123 322
e 123 340
e 123 382
e 124 139
e 124 162
e 124 173
e 124 265
e 124 270
e 124 327
e 124 352
e 124 353
e 124 381
e 125 161
e 125 189
e 125 232
e 125 244
e 125 248
e 125 311
e 125 316
e 126 142
e 126 198
e 126 233
e 126 249
e 126 252
e 126 268
e 126 282
e 127 217
e 127 262
e 127 309
e 127 328
e 127 346
e 128 145
e 128 192
e 128 223
e 128 251
e 128 293
e 128 331
e 129 172
e 129 224
e 129 225
e 129 367
e 130 133
e 130 148
e 130 207
e 130 208
e 130 212
e 130 235
e 130 236
e 130 241
e 130 253
e 130 254
e 130 273
e 130 289
e 130 302
e 130 356
e 130 360
e 130 369
e 131 136
e 131 171
e 131 184
e 131 201
e 131 205
e 131 206
e 131 240
e 131 257
e 131 258
e 131 290
e 131 301
e 131 339
e 131 371
e 131 372
e 131 377
e 132 141
e 132 147
e 132 156
e 132 196
e 132 209
e 132 214
e 132 216
e 132 267
e 132 287
e 132 291
e 132 322
e 132 334
e 132 340
e 132 368
e 132 382
e 133 148
e 133 212
e 133 228
e 133 235
e 133 236
e 133 254
e 133 289
e 133 295
e 133 302
e 133 347
e 134 157
e 134 166
e 134 181
e 134 182
e 134 211
e 134 218
e 134 263
e 134 274
e 134 312
e 134 318
e 134 341
e 134 358
e 134 374
e 134 375
e 135 153
e 135 165
e 135 169
e 135 186
e 135 213
e 135 239
e 135 264
e 135 303
e 135 324
e 135 357
e 135 362
e 135 364
e 136 171
e 136 173
e 136 175
e 136 201
e 136 205
e 136 206
e 136 279
e 136 280
e 136 290
e 136 372
e 136 377
e 137 138
e 137 202
e 137 281
e 137 285
e 137 306
e 137 345
e 138 168
e 138 202
e 138 281
e 138 285
e 138 345
e 139 162
e 139 173
e 139 265
e 139 270
e 139 279
e 139 352
e 139 353
e 139 381
e 140 157
e 140 191
e 140 193
e 140 218
e 140 234
e 140 274
e 140 278
e 141 144
e 141 156
e 141 267
e 141 287
e 141 368
e 141 382
e 142 198
e 142 200
e 142 233
e 142 249
e 142 252
e 142 268
e 142 282
e 143 207
e 143 208
e 143 228
e 143 254
e 143 295
e 143 302
e 144 156
e 144 209
e 144 245
e 144 267
e 144 368
e 144 382
e 145 192
e 145 221
e 145 223
e 145 317
e 145 331
e 146 180
e 146 200
e 146 249
e 146 252
e 146 268
e 147 190
e 147 196
e 147 203
e 147 214
e 147 247
e 147 256
e 147 287
e 147 291
e 147 321
e 147 322
e 147 332
e 147 334
e 147 340
e 147 371
e 148 212
e 148 228
e 148 235
e 148 236
e 148 253
e 148 254
e 148 289
e 148 295
e 148 302
e 148 369
e 149 172
e 149 176
e 149 179
e 149 183
e 149 224
e 149 225
e 149 243
e 149 261
e 149 266
e 149 304
e 149 309
e 149 346
e 149 367
e 150 151
e 150 165
e 150 174
e 150 210
e 150 272
e 150 276
e 150 307
e 150 343
e 150 347
e 150 365
e 150 366
e 151 165
e 151 174
e 151 210
e 151 272
e 151 307
e 151 343
e 151 347
e 151 357
e 151 365
e 152 163
e 152 219
e 152 222
e 152 259
e 152 260
e 152 296
e 152 297
e 152 305
e 152 325
e 152 373
e 152 380
e 153 165
e 153 169
e 153 186
e 153 210
e 153 213
e 153 239
e 153 303
e 153 324
e 153 357
e 153 362
e 154 155
e 154 167
e 154 168
e 154 202
e 154 285
e 154 335
e 154 344
e 154 345
e 155 167
e 155 168
e 155 185
e 155 202
e 155 242
e 155 285
e 155 335
e 155 344
e 156 170
e 156 209
e 156 216
e 156 267
e 156 287
e 156 313
e 156 322
e 156 340
e 156 368
e 156 382
e 157 181
e 157 182
e 157 193
e 157 218
e 157 263
e 157 274
e 157 312
e 157 358
e 157 374
e 157 375
e 158 164
e 158 194
e 158 195
e 158 250
e 158 298
e 158 310
e 158 338
e 159 197
e 159 294
e 159 300
e 159 329
e 159 359
e 160 176
e 160 179
e 160 189
e 160 232
e 160 266
e 160 269
e 160 314
e 160 316
e 161 189
e 161 232
e 161 244
e 161 314
e 161 316
e 162 173
e 162 265
e 162 270
e 162 352
e 162 381
e 163 260
e 163 349
e 163 373
e 164 195
e 164 250
e 164 310
e 165 169
e 165 186
e 165 210
e 165 213
e 165 239
e 165 272
e 165 303
e 165 307
e 165 324
e 165 343
e 165 357
e 165 362
e 165 364
e 165 365
e 166 181
e 166 182
e 166 211
e 166 218
e 166 221
e 166 229
e 166 274
e 166 319
e 166 323
e 166 341
e 166 358
e 166 375
e 166 379
e 167 168
e 167 185
e 167 219
e 167 242
e 167 285
e 167 296
e 167 335
e 167 344
e 168 202
e 168 285
e 168 335
e 168 344
e 168 345
e 168 348
e 169 186
e 169 213
e 169 239
e 169 264
e 169 303
e 169 324
e 169 357
e 169 362
e 169 364
e 170 187
e 170 209
e 170 216
e 170 217
e 170 245
e 170 297
e 170 313
e 170 315
e 170 328
e 170 378
e 170 382
e 171 175
e 171 201
e 171 205
e 171 206
e 171 279
e 171 280
e 171 290
e 171 372
e 171 377
e 172 183
e 172 224
e 172 225
e 172 243
e 172 261
e 172 304
e 172 367
e 173 175
e 173 265
e 173 270
e 173 279
e 173 327
e 173 348
e 173 352
e 173 353
e 173 381
e 174 193
e 174 212
e 174 272
e 174 276
e 174 299
e 174 343
e 174 366
e 175 279
e 175 280
e 175 327
e 175 335
e 175 348
e 175 352
e 175 353
e 175 372
e 175 377
e 176 179
e 176 183
e 176 224
e 176 225
e 176 243
e 176 266
e 176 269
e 176 304
e 177 204
e 177 237
e 177 251
e 177 277
e 177 286
e 177 293
e 177 330
e 177 376
e 178 194
e 178 226
e 178 230
e 178 248
e 178 298
e 178 311
e 178 354
e 179 183
e 179 243
e 179 266
e 179 269
e 180 200
e 180 249
e 180 252
e 181 182
e 181 211
e 181 218
e 181 263
e 181 274
e 181 312
e 181 318
e 181 319
e 181 341
e 181 358
e 181 374
e 181 375
e 182 211
e 182 218
e 182 263
e 182 274
e 182 312
e 182 318
e 182 319
e 182 341
e 182 358
e 182 374
e 182 375
e 183 224
e 183 225
e 183 243
e 183 266
e 183 269
e 183 304
e 183 309
e 183 346
e 183 367
e 184 201
e 184 240
e 184 257
e 184 258
e 184 301
e 184 329
e 184 332
e 184 339
e 184 359
e 184 371
e 185 219
e 185 242
e 185 259
e 185 280
e 185 290
e 185 296
e 185 335
e 185 377
e 185 380
e 186 213
e 186 239
e 186 264
e 186 303
e 186 324
e 186 357
e 186 362
e 187 209
e 187 217
e 187 245
e 187 261
e 187 262
e 187 313
e 187 315
e 187 328
e 187 346
e 187 378
e 188 215
e 188 220
e 188 288
e 188 336
e 188 342
e 188 350
e 189 226
e 189 232
e 189 244
e 189 248
e 189 311
e 189 314
e 189 316
e 189 354
e 190 196
e 190 214
e 190 247
e 190 291
e 190 332
e 190 334
e 191 193
e 191 276
e 191 278
e 191 299
e 191 364
e 191 366
e 192 221
e 192 223
e 192 317
e 192 323
e 192 331
e 192 379
e 193 263
e 193 272
e 193 276
e 193 278
e 193 299
e 193 366
e 194 208
e 194 226
e 194 230
e 194 298
e 194 354
e 195 241
e 195 250
e 195 273
e 195 310
e 195 338
e 196 214
e 196 247
e 196 287
e 196 291
e 196 322
e 196 334
e 197 199
e 197 271
e 197 283
e 197 329
e 198 233
e 198 249
e 198 268
e 198 282
e 199 271
e 199 283
e 200 249
e 200 252
e 200 268
e 200 282
e 201 205
e 201 206
e 201 246
e 201 257
e 201 258
e 201 290
e 201 294
e 201 301
e 201 339
e 201 359
e 201 372
e 201 377
e 202 285
e 202 288
e 202 306
e 202 344
e 202 345
e 203 214
e 203 216
e 203 222
e 203 256
e 203 260
e 203 291
e 203 297
e 203 305
e 203 321
e 203 322
e 203 332
e 203 334
e 203 340
e 204 237
e 204 255
e 204 277
e 204 284
e 204 286
e 204 293
e 204 317
e 204 320
e 204 331
e 204 333
e 204 351
e 204 370
e 204 376
e 205 206
e 205 246
e 205 258
e 205 280
e 205 290
e 205 301
e 205 372
e 205 377
e 206 227
e 206 246
e 206 290
e 206 294
e 206 301
e 206 359
e 206 372
e 206 377
e 207 208
e 207 228
e 207 253
e 207 254
e 207 273
e 207 295
e 207 298
e 207 302
e 207 338
e 207 369
e 208 228
e 208 253
e 208 254
e 208 273
e 208 295
e 208 298
e 208 338
e 208 369
e 209 216
e 209 217
e 209 245
e 209 267
e 209 297
e 209 313
e 209 315
e 209 328
e 209 368
e 209 378
e 209 382
e 210 272
e 210 303
e 210 307
e 210 343
e 210 357
e 210 362
e 210 365
e 211 318
e 211 319
e 211 323
e 211 341
e 211 358
e 211 370
e 211 374
e 211 375
e 212 235
e 212 236
e 212 289
e 212 299
e 213 239
e 213 264
e 213 303
e 213 324
e 213 357
e 213 362
e 213 364
e 214 247
e 214 287
e 214 291
e 214 322
e 214 334
e 214 340
e 215 220
e 215 288
e 215 306
e 215 336
e 215 342
e 215 350
e 216 267
e 216 287
e 216 291
e 216 297
e 216 322
e 216 334
e 216 340
e 216 368
e 216 382
e 217 245
e 217 261
e 217 262
e 217 309
e 217 313
e 217 328
e 217 346
e 217 378
e 218 229
e 218 234
e 218 274
e 218 358
e 218 375
e 218 379
e 219 242
e 219 259
e 219 296
e 219 325
e 219 349
e 219 373
e 219 380
e 220 288
e 220 336
e 220 342
e 220 350
e 221 223
e 221 229
e 221 317
e 221 323
e 221 370
e 221 379
e 222 256
e 222 259
e 222 260
e 222 305
e 222 321
e 222 325
e 222 371
e 222 373
e 222 380
e 223 251
e 223 284
e 223 293
e 223 317
e 223 320
e 223 323
e 223 331
e 224 225
e 224 243
e 224 266
e 224 269
e 224 304
e 224 367
e 225 243
e 225 266
e 225 304
e 225 367
e 226 244
e 226 248
e 226 311
e 226 314
e 226 354
e 227 246
e 227 294
e 227 300
e 227 359
e 228 236
e 228 254
e 228 295
e 228 302
e 229 234
e 229 274
e 229 323
e 229 375
e 229 379
e 230 244
e 230 248
e 230 311
e 230 354
e 231 281
e 231 308
e 231 326
e 231 333
e 231 337
e 231 351
e 231 361
e 232 244
e 232 314
e 232 316
e 233 249
e 233 252
e 233 268
e 233 282
e 234 274
e 234 375
e 234 379
e 235 236
e 235 253
e 235 254
e 235 273
e 235 289
e 235 302
e 235 356
e 235 360
e 235 369
e 236 253
e 236 254
e 236 289
e 236 295
e 236 302
e 236 356
e 236 369
e 237 251
e 237 255
e 237 277
e 237 284
e 237 286
e 237 293
e 237 317
e 237 320
e 237 330
e 237 331
e 237 333
e 237 376
e 238 275
e 238 292
e 238 308
e 238 318
e 238 337
e 238 341
e 238 355
e 238 363
e 238 374
e 239 264
e 239 303
e 239 324
e 239 357
e 239 362
e 239 364
e 240 257
e 240 258
e 240 301
e 240 321
e 240 329
e 240 332
e 240 339
e 240 359
e 240 371
e 241 250
e 241 253
e 241 273
e 241 310
e 241 338
e 241 356
e 241 360
e 241 369
e 242 259
e 242 280
e 242 296
e 242 335
e 242 349
e 242 380
e 243 266
e 243 269
e 243 304
e 243 309
e 243 346
e 243 367
e 244 248
e 244 311
e 244 314
e 244 316
e 244 354
e 245 261
e 245 262
e 245 313
e 245 328
e 245 346
e 245 378
e 246 294
e 246 300
e 246 301
e 246 359
e 247 287
e 247 291
e 247 322
e 247 334
e 248 311
e 248 314
e 248 354
e 249 252
e 249 268
e 249 282
e 250 273
e 250 310
e 250 338
e 251 277
e 251 284
e 251 293
e 251 320
e 251 376
e 252 268
e 252 282
e 253 254
e 253 273
e 253 289
e 253 295
e 253 302
e 253 338
e 253 356
e 253 360
e 253 369
e 254 289
e 254 295
e 254 302
e 254 369
e 255 284
e 255 286
e 255 317
e 255 320
e 255 326
e 255 331
e 255 333
e 255 351
e 255 361
e 255 370
e 255 376
e 256 257
e 256 260
e 256 291
e 256 305
e 256 321
e 256 322
e 256 325
e 256 332
e 256 334
e 256 340
e 256 371
e 257 258
e 257 301
e 257 321
e 257 329
e 257 332
e 257 339
e 257 371
e 258 290
e 258 301
e 258 321
e 258 332
e 258 339
e 258 371
e 258 372
e 258 377
e 259 290
e 259 296
e 259 305
e 259 325
e 259 349
e 259 373
e 259 380
e 260 297
e 260 305
e 260 315
e 260 325
e 260 340
e 260 373
e 261 262
e 261 304
e 261 309
e 261 346
e 261 367
e 261 378
e 262 309
e 262 313
e 262 328
e 262 346
e 262 378
e 263 274
e 263 299
e 263 312
e 263 318
e 263 358
e 263 374
e 264 278
e 264 303
e 264 324
e 264 364
e 265 270
e 265 327
e 265 348
e 265 352
e 265 353
e 265 381
e 266 269
e 266 304
e 267 287
e 267 368
e 267 382
e 268 282
e 270 352
e 270 381
e 271 283
e 272 276
e 272 299
e 272 307
e 272 343
e 272 357
e 272 365
e 272 366
e 273 310
e 273 338
e 273 356
e 273 360
e 273 369
e 274 358
e 274 375
e 274 379
e 275 292
e 275 318
e 275 355
e 275 356
e 275 360
e 275 363
e 275 374
e 276 278
e 276 299
e 276 343
e 276 366
e 277 286
e 277 293
e 277 330
e 277 333
e 277 376
e 278 364
e 278 366
e 279 280
e 279 327
e 279 335
e 279 348
e 279 352
e 279 353
e 280 290
e 280 372
e 280 377
e 281 286
e 281 330
e 281 333
e 281 351
e 284 286
e 284 293
e 284 317
e 284 320
e 284 331
e 284 333
e 284 370
e 284 376
e 285 288
e 285 306
e 285 335
e 285 344
e 285 345
e 286 293
e 286 320
e 286 330
e 286 333
e 286 351
e 286 376
e 287 291
e 287 322
e 287 334
e 287 340
e 287 368
e 287 382
e 288 306
e 288 336
e 288 342
e 288 350
e 289 295
e 289 302
e 289 356
e 289 360
e 289 369
e 290 301
e 290 372
e 290 377
e 291 322
e 291 334
e 291 340
e 292 308
e 292 318
e 292 337
e 292 355
e 292 363
e 292 374
e 293 320
e 293 331
e 293 376
e 294 300
e 294 301
e 294 359
e 295 302
e 296 325
e 296 349
e 296 373
e 296 380
e 297 305
e 297 315
e 297 328
e 298 338
e 299 312
e 299 366
e 300 359
e 301 332
e 301 339
e 301 359
e 301 371
e 301 372
e 302 369
e 303 324
e 303 357
e 303 362
e 303 364
e 304 309
e 304 346
e 304 367
e 305 321
e 305 325
e 305 373
e 306 336
e 306 345
e 307 343
e 307 347
e 307 365
e 308 326
e 308 337
e 308 355
e 308 361
e 308 363
e 309 346
e 309 378
e 310 338
e 310 356
e 311 314
e 311 354
e 312 318
e 312 358
e 312 374
e 313 315
e 313 328
e 313 378
e 314 316
e 314 354
e 315 328
e 317 320
e 317 323
e 317 331
e 317 370
e 317 376
e 318 319
e 318 341
e 318 358
e 318 363
e 318 374
e 319 323
e 319 326
e 319 337
e 319 341
e 319 358
e 319 361
e 319 370
e 320 331
e 320 333
e 320 370
e 320 376
e 321 325
e 321 332
e 321 339
e 321 371
e 322 334
e 322 340
e 323 331
e 323 341
e 323 370
e 323 379
e 324 357
e 324 362
e 324 364
e 325 373
e 325 380
e 326 337
e 326 351
e 326 361
e 327 335
e 327 344
e 327 348
e 327 352
e 327 353
e 327 381
e 328 378
e 329 339
e 329 359
e 330 333
e 331 370
e 331 376
e 332 339
e 332 371
e 333 351
e 333 361
e 333 376
e 334 340
e 335 344
e 335 348
e 336 342
e 336 350
e 337 351
e 337 355
e 337 361
e 337 363
e 338 356
e 338 369
e 339 371
e 341 358
e 341 374
e 341 375
e 342 349
e 342 350
e 343 357
e 343 365
e 343 366
e 344 348
e 346 378
e 347 365
e 348 352
e 348 353
e 348 381
e 349 373
e 349 380
e 351 361
e 352 353
e 352 381
e 353 381
e 355 363
e 356 360
e 356 369
e 357 362
e 357 365
e 358 374
e 358 375
e 360 363
e 360 369
e 361 370
e 364 366
e 368 382
e 372 377
e 373 380
e 375 379
